/* Objective function */
min: +C51 +C52 +C53 +C54 +C55 +C56 +C57 +C58 +C59 +C60;

/* Constraints */
+102 C1 +137 C2 +144 C3 +C4 +8 C5 +67 C6 +40 C7 +31 C8 +4 C9 -175 C46 <= 0;
+102 C10 +137 C11 +144 C12 +C13 +8 C14 +67 C15 +40 C16 +31 C17 +4 C18 -175 C47 <= 0;
+102 C19 +137 C20 +144 C21 +C22 +8 C23 +67 C24 +40 C25 +31 C26 +4 C27 -175 C48 <= 0;
+102 C28 +137 C29 +144 C30 +C31 +8 C32 +67 C33 +40 C34 +31 C35 +4 C36 -175 C49 <= 0;
+102 C37 +137 C38 +144 C39 +C40 +8 C41 +67 C42 +40 C43 +31 C44 +4 C45 -175 C50 <= 0;
+50 C1 +76 C2 +90 C3 +142 C4 +41 C5 +3 C6 +64 C7 +37 C8 +84 C9 -145 C46 <= 0;
+50 C10 +76 C11 +90 C12 +142 C13 +41 C14 +3 C15 +64 C16 +37 C17 +84 C18 -145 C47 <= 0;
+50 C19 +76 C20 +90 C21 +142 C22 +41 C23 +3 C24 +64 C25 +37 C26 +84 C27 -145 C48 <= 0;
+50 C28 +76 C29 +90 C30 +142 C31 +41 C32 +3 C33 +64 C34 +37 C35 +84 C36 -145 C49 <= 0;
+50 C37 +76 C38 +90 C39 +142 C40 +41 C41 +3 C42 +64 C43 +37 C44 +84 C45 -145 C50 <= 0;
+C1 +C10 +C19 +C28 +C37 = 1;
+C2 +C11 +C20 +C29 +C38 = 1;
+C3 +C12 +C21 +C30 +C39 = 1;
+C4 +C13 +C22 +C31 +C40 = 1;
+C5 +C14 +C23 +C32 +C41 = 1;
+C6 +C15 +C24 +C33 +C42 = 1;
+C7 +C16 +C25 +C34 +C43 = 1;
+C8 +C17 +C26 +C35 +C44 = 1;
+C9 +C18 +C27 +C36 +C45 = 1;
+50 C1 +76 C2 +90 C3 +142 C4 +41 C5 +3 C6 +64 C7 +37 C8 +84 C9 -50 C10 -76 C11 -90 C12 -142 C13 -41 C14
 -3 C15 -64 C16 -37 C17 -84 C18 -C51 <= 0;
-50 C1 -76 C2 -90 C3 -142 C4 -41 C5 -3 C6 -64 C7 -37 C8 -84 C9 +50 C10 +76 C11 +90 C12 +142 C13 +41 C14
 +3 C15 +64 C16 +37 C17 +84 C18 -C51 <= 0;
+50 C1 +76 C2 +90 C3 +142 C4 +41 C5 +3 C6 +64 C7 +37 C8 +84 C9 -50 C19 -76 C20 -90 C21 -142 C22 -41 C23
 -3 C24 -64 C25 -37 C26 -84 C27 -C52 <= 0;
-50 C1 -76 C2 -90 C3 -142 C4 -41 C5 -3 C6 -64 C7 -37 C8 -84 C9 +50 C19 +76 C20 +90 C21 +142 C22 +41 C23
 +3 C24 +64 C25 +37 C26 +84 C27 -C52 <= 0;
+50 C1 +76 C2 +90 C3 +142 C4 +41 C5 +3 C6 +64 C7 +37 C8 +84 C9 -50 C28 -76 C29 -90 C30 -142 C31 -41 C32
 -3 C33 -64 C34 -37 C35 -84 C36 -C53 <= 0;
-50 C1 -76 C2 -90 C3 -142 C4 -41 C5 -3 C6 -64 C7 -37 C8 -84 C9 +50 C28 +76 C29 +90 C30 +142 C31 +41 C32
 +3 C33 +64 C34 +37 C35 +84 C36 -C53 <= 0;
+50 C1 +76 C2 +90 C3 +142 C4 +41 C5 +3 C6 +64 C7 +37 C8 +84 C9 -50 C37 -76 C38 -90 C39 -142 C40 -41 C41
 -3 C42 -64 C43 -37 C44 -84 C45 -C54 <= 0;
-50 C1 -76 C2 -90 C3 -142 C4 -41 C5 -3 C6 -64 C7 -37 C8 -84 C9 +50 C37 +76 C38 +90 C39 +142 C40 +41 C41
 +3 C42 +64 C43 +37 C44 +84 C45 -C54 <= 0;
+50 C10 +76 C11 +90 C12 +142 C13 +41 C14 +3 C15 +64 C16 +37 C17 +84 C18 -50 C19 -76 C20 -90 C21 -142 C22
 -41 C23 -3 C24 -64 C25 -37 C26 -84 C27 -C55 <= 0;
-50 C10 -76 C11 -90 C12 -142 C13 -41 C14 -3 C15 -64 C16 -37 C17 -84 C18 +50 C19 +76 C20 +90 C21 +142 C22
 +41 C23 +3 C24 +64 C25 +37 C26 +84 C27 -C55 <= 0;
+50 C10 +76 C11 +90 C12 +142 C13 +41 C14 +3 C15 +64 C16 +37 C17 +84 C18 -50 C28 -76 C29 -90 C30 -142 C31
 -41 C32 -3 C33 -64 C34 -37 C35 -84 C36 -C56 <= 0;
-50 C10 -76 C11 -90 C12 -142 C13 -41 C14 -3 C15 -64 C16 -37 C17 -84 C18 +50 C28 +76 C29 +90 C30 +142 C31
 +41 C32 +3 C33 +64 C34 +37 C35 +84 C36 -C56 <= 0;
+50 C10 +76 C11 +90 C12 +142 C13 +41 C14 +3 C15 +64 C16 +37 C17 +84 C18 -50 C37 -76 C38 -90 C39 -142 C40
 -41 C41 -3 C42 -64 C43 -37 C44 -84 C45 -C57 <= 0;
-50 C10 -76 C11 -90 C12 -142 C13 -41 C14 -3 C15 -64 C16 -37 C17 -84 C18 +50 C37 +76 C38 +90 C39 +142 C40
 +41 C41 +3 C42 +64 C43 +37 C44 +84 C45 -C57 <= 0;
+50 C19 +76 C20 +90 C21 +142 C22 +41 C23 +3 C24 +64 C25 +37 C26 +84 C27 -50 C28 -76 C29 -90 C30 -142 C31
 -41 C32 -3 C33 -64 C34 -37 C35 -84 C36 -C58 <= 0;
-50 C19 -76 C20 -90 C21 -142 C22 -41 C23 -3 C24 -64 C25 -37 C26 -84 C27 +50 C28 +76 C29 +90 C30 +142 C31
 +41 C32 +3 C33 +64 C34 +37 C35 +84 C36 -C58 <= 0;
+50 C19 +76 C20 +90 C21 +142 C22 +41 C23 +3 C24 +64 C25 +37 C26 +84 C27 -50 C37 -76 C38 -90 C39 -142 C40
 -41 C41 -3 C42 -64 C43 -37 C44 -84 C45 -C59 <= 0;
-50 C19 -76 C20 -90 C21 -142 C22 -41 C23 -3 C24 -64 C25 -37 C26 -84 C27 +50 C37 +76 C38 +90 C39 +142 C40
 +41 C41 +3 C42 +64 C43 +37 C44 +84 C45 -C59 <= 0;
+50 C28 +76 C29 +90 C30 +142 C31 +41 C32 +3 C33 +64 C34 +37 C35 +84 C36 -50 C37 -76 C38 -90 C39 -142 C40
 -41 C41 -3 C42 -64 C43 -37 C44 -84 C45 -C60 <= 0;
-50 C28 -76 C29 -90 C30 -142 C31 -41 C32 -3 C33 -64 C34 -37 C35 -84 C36 +50 C37 +76 C38 +90 C39 +142 C40
 +41 C41 +3 C42 +64 C43 +37 C44 +84 C45 -C60 <= 0;

/* Variable bounds */
C1 <= 1;
C2 <= 1;
C3 <= 1;
C4 <= 1;
C5 <= 1;
C6 <= 1;
C7 <= 1;
C8 <= 1;
C9 <= 1;
C10 <= 1;
C11 <= 1;
C12 <= 1;
C13 <= 1;
C14 <= 1;
C15 <= 1;
C16 <= 1;
C17 <= 1;
C18 <= 1;
C19 <= 1;
C20 <= 1;
C21 <= 1;
C22 <= 1;
C23 <= 1;
C24 <= 1;
C25 <= 1;
C26 <= 1;
C27 <= 1;
C28 <= 1;
C29 <= 1;
C30 <= 1;
C31 <= 1;
C32 <= 1;
C33 <= 1;
C34 <= 1;
C35 <= 1;
C36 <= 1;
C37 <= 1;
C38 <= 1;
C39 <= 1;
C40 <= 1;
C41 <= 1;
C42 <= 1;
C43 <= 1;
C44 <= 1;
C45 <= 1;

/* Integer definitions */
int C1,C2,C3,C4,C5,C6,C7,C8,C9,C10,C11,C12,C13,C14,C15,C16,C17,C18,C19,C20,C21,C22,C23,C24,C25,C26,C27,C28,C29,C30,C31,C32,C33,C34,C35,C36,C37,C38,C39,C40,C41,C42,C43,C44,C45,C46,C47,C48,C49,C50,C51,C52,C53,C54,C55,C56,C57,C58,C59,C60;
